Instance Name : rc205
Date : 2022-07-18
Solution
Route 1 : 2 45 42 39 36 72 71 62 94 61 44 40 38 41 81 90 53 98 55 68 43 35 37 54 96 93 91 80
Route 2 : 69 82 11 15 16 47 14 12 88 78 73 79 7 6 8 46 5 3 1 4 100 70
Route 3 : 92 63 33 28 27 29 31 30 67 95 83 99 52 86 9 87 59 75 97 10 74 13 17 60
Route 4 : 65 64 19 23 21 18 76 85 84 51 49 22 20 57 66 56 50 34 26 32 89 48 24 25 77 58
